\ Model prob_14
\ LP format - for model browsing. Use MPS format to capture full model detail.
Minimize
  4 Eggs + 3 Grains + 2 Berries + 4 Nuts + 9 Salmon + 3 Vegetables + 6 Rice
   + 6 Meat
Subject To
 R0: 2 Eggs + 7 Grains + 6 Berries + 16 Nuts + 20 Salmon + 6 Vegetables
   + 6 Rice + 5 Meat >= 84
 R1: 4 Eggs + 9 Grains + 18 Berries + 3 Nuts + 11 Salmon + 27 Vegetables
   + 30 Rice + Meat >= 195
 R2: 282 Eggs + 104 Grains + 71 Berries + 116 Nuts + 175 Salmon
   + 132 Vegetables + 251 Rice + 74 Meat >= 1941
Bounds
Generals
 Eggs Grains Berries Nuts Salmon Vegetables Rice Meat
End
